p cnf 640 1728
1 2 3 4 5 0
6 7 8 9 10 0
11 12 13 14 15 0
16 17 18 19 20 0
21 22 23 24 25 0
26 27 28 29 30 0
31 32 33 34 35 0
36 37 38 39 40 0
41 42 43 44 45 0
46 47 48 49 50 0
51 52 53 54 55 0
56 57 58 59 60 0
61 62 63 64 65 0
66 67 68 69 70 0
71 72 73 74 75 0
76 77 78 79 80 0
81 82 83 84 85 0
86 87 88 89 90 0
91 92 93 94 95 0
96 97 98 99 100 0
101 102 103 104 105 0
106 107 108 109 110 0
1 0
-6 111 0
-86 111 0
-91 111 0
-21 111 0
-101 111 0
-36 111 0
-41 111 0
-26 -111 0
-106 -111 0
-31 -111 0
-76 -111 0
-7 112 0
-87 112 0
-92 112 0
-22 112 0
-102 112 0
-37 112 0
-42 112 0
-27 -112 0
-107 -112 0
-32 -112 0
-77 -112 0
-8 113 0
-88 113 0
-93 113 0
-23 113 0
-103 113 0
-38 113 0
-43 113 0
-28 -113 0
-108 -113 0
-33 -113 0
-78 -113 0
-9 114 0
-89 114 0
-94 114 0
-24 114 0
-104 114 0
-39 114 0
-44 114 0
-29 -114 0
-109 -114 0
-34 -114 0
-79 -114 0
-10 115 0
-90 115 0
-95 115 0
-25 115 0
-105 115 0
-40 115 0
-45 115 0
-30 -115 0
-110 -115 0
-35 -115 0
-80 -115 0
591 -1 -6 0
592 -1 -7 0
593 -1 -8 0
594 -1 -9 0
595 -1 -10 0
596 -2 -6 0
597 -2 -7 0
598 -2 -8 0
599 -2 -9 0
600 -2 -10 0
601 -3 -6 0
602 -3 -7 0
603 -3 -8 0
604 -3 -9 0
605 -3 -10 0
606 -4 -6 0
607 -4 -7 0
608 -4 -8 0
609 -4 -9 0
610 -4 -10 0
611 -5 -6 0
612 -5 -7 0
613 -5 -8 0
614 -5 -9 0
615 -5 -10 0
616 -6 -11 0
617 -6 -12 0
618 -6 -13 0
619 -6 -14 0
620 -6 -15 0
621 -7 -11 0
622 -7 -12 0
623 -7 -13 0
624 -7 -14 0
625 -7 -15 0
626 -8 -11 0
627 -8 -12 0
628 -8 -13 0
629 -8 -14 0
630 -8 -15 0
631 -9 -11 0
632 -9 -12 0
633 -9 -13 0
634 -9 -14 0
635 -9 -15 0
636 -10 -11 0
637 -10 -12 0
638 -10 -13 0
639 -10 -14 0
640 -10 -15 0
591 -11 -16 0
592 -11 -17 0
593 -11 -18 0
594 -11 -19 0
595 -11 -20 0
596 -12 -16 0
597 -12 -17 0
598 -12 -18 0
599 -12 -19 0
600 -12 -20 0
601 -13 -16 0
602 -13 -17 0
603 -13 -18 0
604 -13 -19 0
605 -13 -20 0
606 -14 -16 0
607 -14 -17 0
608 -14 -18 0
609 -14 -19 0
610 -14 -20 0
611 -15 -16 0
612 -15 -17 0
613 -15 -18 0
614 -15 -19 0
615 -15 -20 0
591 -16 -21 0
592 -16 -22 0
593 -16 -23 0
594 -16 -24 0
595 -16 -25 0
596 -17 -21 0
597 -17 -22 0
598 -17 -23 0
599 -17 -24 0
600 -17 -25 0
601 -18 -21 0
602 -18 -22 0
603 -18 -23 0
604 -18 -24 0
605 -18 -25 0
606 -19 -21 0
607 -19 -22 0
608 -19 -23 0
609 -19 -24 0
610 -19 -25 0
611 -20 -21 0
612 -20 -22 0
613 -20 -23 0
614 -20 -24 0
615 -20 -25 0
616 -11 -26 0
617 -11 -27 0
618 -11 -28 0
619 -11 -29 0
620 -11 -30 0
621 -12 -26 0
622 -12 -27 0
623 -12 -28 0
624 -12 -29 0
625 -12 -30 0
626 -13 -26 0
627 -13 -27 0
628 -13 -28 0
629 -13 -29 0
630 -13 -30 0
631 -14 -26 0
632 -14 -27 0
633 -14 -28 0
634 -14 -29 0
635 -14 -30 0
636 -15 -26 0
637 -15 -27 0
638 -15 -28 0
639 -15 -29 0
640 -15 -30 0
616 -1 -31 0
617 -1 -32 0
618 -1 -33 0
619 -1 -34 0
620 -1 -35 0
621 -2 -31 0
622 -2 -32 0
623 -2 -33 0
624 -2 -34 0
625 -2 -35 0
626 -3 -31 0
627 -3 -32 0
628 -3 -33 0
629 -3 -34 0
630 -3 -35 0
631 -4 -31 0
632 -4 -32 0
633 -4 -33 0
634 -4 -34 0
635 -4 -35 0
636 -5 -31 0
637 -5 -32 0
638 -5 -33 0
639 -5 -34 0
640 -5 -35 0
616 -31 -36 0
617 -31 -37 0
618 -31 -38 0
619 -31 -39 0
620 -31 -40 0
621 -32 -36 0
622 -32 -37 0
623 -32 -38 0
624 -32 -39 0
625 -32 -40 0
626 -33 -36 0
627 -33 -37 0
628 -33 -38 0
629 -33 -39 0
630 -33 -40 0
631 -34 -36 0
632 -34 -37 0
633 -34 -38 0
634 -34 -39 0
635 -34 -40 0
636 -35 -36 0
637 -35 -37 0
638 -35 -38 0
639 -35 -39 0
640 -35 -40 0
591 -31 -41 0
592 -31 -42 0
593 -31 -43 0
594 -31 -44 0
595 -31 -45 0
596 -32 -41 0
597 -32 -42 0
598 -32 -43 0
599 -32 -44 0
600 -32 -45 0
601 -33 -41 0
602 -33 -42 0
603 -33 -43 0
604 -33 -44 0
605 -33 -45 0
606 -34 -41 0
607 -34 -42 0
608 -34 -43 0
609 -34 -44 0
610 -34 -45 0
611 -35 -41 0
612 -35 -42 0
613 -35 -43 0
614 -35 -44 0
615 -35 -45 0
591 -6 -46 0
592 -6 -47 0
593 -6 -48 0
594 -6 -49 0
595 -6 -50 0
596 -7 -46 0
597 -7 -47 0
598 -7 -48 0
599 -7 -49 0
600 -7 -50 0
601 -8 -46 0
602 -8 -47 0
603 -8 -48 0
604 -8 -49 0
605 -8 -50 0
606 -9 -46 0
607 -9 -47 0
608 -9 -48 0
609 -9 -49 0
610 -9 -50 0
611 -10 -46 0
612 -10 -47 0
613 -10 -48 0
614 -10 -49 0
615 -10 -50 0
591 -46 -51 0
592 -46 -52 0
593 -46 -53 0
594 -46 -54 0
595 -46 -55 0
596 -47 -51 0
597 -47 -52 0
598 -47 -53 0
599 -47 -54 0
600 -47 -55 0
601 -48 -51 0
602 -48 -52 0
603 -48 -53 0
604 -48 -54 0
605 -48 -55 0
606 -49 -51 0
607 -49 -52 0
608 -49 -53 0
609 -49 -54 0
610 -49 -55 0
611 -50 -51 0
612 -50 -52 0
613 -50 -53 0
614 -50 -54 0
615 -50 -55 0
591 -51 -56 0
592 -51 -57 0
593 -51 -58 0
594 -51 -59 0
595 -51 -60 0
596 -52 -56 0
597 -52 -57 0
598 -52 -58 0
599 -52 -59 0
600 -52 -60 0
601 -53 -56 0
602 -53 -57 0
603 -53 -58 0
604 -53 -59 0
605 -53 -60 0
606 -54 -56 0
607 -54 -57 0
608 -54 -58 0
609 -54 -59 0
610 -54 -60 0
611 -55 -56 0
612 -55 -57 0
613 -55 -58 0
614 -55 -59 0
615 -55 -60 0
591 -56 -61 0
592 -56 -62 0
593 -56 -63 0
594 -56 -64 0
595 -56 -65 0
596 -57 -61 0
597 -57 -62 0
598 -57 -63 0
599 -57 -64 0
600 -57 -65 0
601 -58 -61 0
602 -58 -62 0
603 -58 -63 0
604 -58 -64 0
605 -58 -65 0
606 -59 -61 0
607 -59 -62 0
608 -59 -63 0
609 -59 -64 0
610 -59 -65 0
611 -60 -61 0
612 -60 -62 0
613 -60 -63 0
614 -60 -64 0
615 -60 -65 0
591 -61 -66 0
592 -61 -67 0
593 -61 -68 0
594 -61 -69 0
595 -61 -70 0
596 -62 -66 0
597 -62 -67 0
598 -62 -68 0
599 -62 -69 0
600 -62 -70 0
601 -63 -66 0
602 -63 -67 0
603 -63 -68 0
604 -63 -69 0
605 -63 -70 0
606 -64 -66 0
607 -64 -67 0
608 -64 -68 0
609 -64 -69 0
610 -64 -70 0
611 -65 -66 0
612 -65 -67 0
613 -65 -68 0
614 -65 -69 0
615 -65 -70 0
591 -66 -71 0
592 -66 -72 0
593 -66 -73 0
594 -66 -74 0
595 -66 -75 0
596 -67 -71 0
597 -67 -72 0
598 -67 -73 0
599 -67 -74 0
600 -67 -75 0
601 -68 -71 0
602 -68 -72 0
603 -68 -73 0
604 -68 -74 0
605 -68 -75 0
606 -69 -71 0
607 -69 -72 0
608 -69 -73 0
609 -69 -74 0
610 -69 -75 0
611 -70 -71 0
612 -70 -72 0
613 -70 -73 0
614 -70 -74 0
615 -70 -75 0
591 -71 -76 0
592 -71 -77 0
593 -71 -78 0
594 -71 -79 0
595 -71 -80 0
596 -72 -76 0
597 -72 -77 0
598 -72 -78 0
599 -72 -79 0
600 -72 -80 0
601 -73 -76 0
602 -73 -77 0
603 -73 -78 0
604 -73 -79 0
605 -73 -80 0
606 -74 -76 0
607 -74 -77 0
608 -74 -78 0
609 -74 -79 0
610 -74 -80 0
611 -75 -76 0
612 -75 -77 0
613 -75 -78 0
614 -75 -79 0
615 -75 -80 0
616 -46 -81 0
617 -46 -82 0
618 -46 -83 0
619 -46 -84 0
620 -46 -85 0
621 -47 -81 0
622 -47 -82 0
623 -47 -83 0
624 -47 -84 0
625 -47 -85 0
626 -48 -81 0
627 -48 -82 0
628 -48 -83 0
629 -48 -84 0
630 -48 -85 0
631 -49 -81 0
632 -49 -82 0
633 -49 -83 0
634 -49 -84 0
635 -49 -85 0
636 -50 -81 0
637 -50 -82 0
638 -50 -83 0
639 -50 -84 0
640 -50 -85 0
616 -81 -86 0
617 -81 -87 0
618 -81 -88 0
619 -81 -89 0
620 -81 -90 0
621 -82 -86 0
622 -82 -87 0
623 -82 -88 0
624 -82 -89 0
625 -82 -90 0
626 -83 -86 0
627 -83 -87 0
628 -83 -88 0
629 -83 -89 0
630 -83 -90 0
631 -84 -86 0
632 -84 -87 0
633 -84 -88 0
634 -84 -89 0
635 -84 -90 0
636 -85 -86 0
637 -85 -87 0
638 -85 -88 0
639 -85 -89 0
640 -85 -90 0
616 -71 -91 0
617 -71 -92 0
618 -71 -93 0
619 -71 -94 0
620 -71 -95 0
621 -72 -91 0
622 -72 -92 0
623 -72 -93 0
624 -72 -94 0
625 -72 -95 0
626 -73 -91 0
627 -73 -92 0
628 -73 -93 0
629 -73 -94 0
630 -73 -95 0
631 -74 -91 0
632 -74 -92 0
633 -74 -93 0
634 -74 -94 0
635 -74 -95 0
636 -75 -91 0
637 -75 -92 0
638 -75 -93 0
639 -75 -94 0
640 -75 -95 0
616 -66 -96 0
617 -66 -97 0
618 -66 -98 0
619 -66 -99 0
620 -66 -100 0
621 -67 -96 0
622 -67 -97 0
623 -67 -98 0
624 -67 -99 0
625 -67 -100 0
626 -68 -96 0
627 -68 -97 0
628 -68 -98 0
629 -68 -99 0
630 -68 -100 0
631 -69 -96 0
632 -69 -97 0
633 -69 -98 0
634 -69 -99 0
635 -69 -100 0
636 -70 -96 0
637 -70 -97 0
638 -70 -98 0
639 -70 -99 0
640 -70 -100 0
591 -96 -101 0
592 -96 -102 0
593 -96 -103 0
594 -96 -104 0
595 -96 -105 0
596 -97 -101 0
597 -97 -102 0
598 -97 -103 0
599 -97 -104 0
600 -97 -105 0
601 -98 -101 0
602 -98 -102 0
603 -98 -103 0
604 -98 -104 0
605 -98 -105 0
606 -99 -101 0
607 -99 -102 0
608 -99 -103 0
609 -99 -104 0
610 -99 -105 0
611 -100 -101 0
612 -100 -102 0
613 -100 -103 0
614 -100 -104 0
615 -100 -105 0
616 -96 -106 0
617 -96 -107 0
618 -96 -108 0
619 -96 -109 0
620 -96 -110 0
621 -97 -106 0
622 -97 -107 0
623 -97 -108 0
624 -97 -109 0
625 -97 -110 0
626 -98 -106 0
627 -98 -107 0
628 -98 -108 0
629 -98 -109 0
630 -98 -110 0
631 -99 -106 0
632 -99 -107 0
633 -99 -108 0
634 -99 -109 0
635 -99 -110 0
636 -100 -106 0
637 -100 -107 0
638 -100 -108 0
639 -100 -109 0
640 -100 -110 0
-616 -617 0
-616 -618 0
-617 -618 0
-616 -619 0
-617 -619 0
-618 -619 0
-616 -620 0
-617 -620 0
-618 -620 0
-619 -620 0
-621 -622 0
-621 -623 0
-622 -623 0
-621 -624 0
-622 -624 0
-623 -624 0
-621 -625 0
-622 -625 0
-623 -625 0
-624 -625 0
-626 -627 0
-626 -628 0
-627 -628 0
-626 -629 0
-627 -629 0
-628 -629 0
-626 -630 0
-627 -630 0
-628 -630 0
-629 -630 0
-631 -632 0
-631 -633 0
-632 -633 0
-631 -634 0
-632 -634 0
-633 -634 0
-631 -635 0
-632 -635 0
-633 -635 0
-634 -635 0
-636 -637 0
-636 -638 0
-637 -638 0
-636 -639 0
-637 -639 0
-638 -639 0
-636 -640 0
-637 -640 0
-638 -640 0
-639 -640 0
-591 -592 0
-591 -593 0
-592 -593 0
-591 -594 0
-592 -594 0
-593 -594 0
-591 -595 0
-592 -595 0
-593 -595 0
-594 -595 0
-596 -597 0
-596 -598 0
-597 -598 0
-596 -599 0
-597 -599 0
-598 -599 0
-596 -600 0
-597 -600 0
-598 -600 0
-599 -600 0
-601 -602 0
-601 -603 0
-602 -603 0
-601 -604 0
-602 -604 0
-603 -604 0
-601 -605 0
-602 -605 0
-603 -605 0
-604 -605 0
-606 -607 0
-606 -608 0
-607 -608 0
-606 -609 0
-607 -609 0
-608 -609 0
-606 -610 0
-607 -610 0
-608 -610 0
-609 -610 0
-611 -612 0
-611 -613 0
-612 -613 0
-611 -614 0
-612 -614 0
-613 -614 0
-611 -615 0
-612 -615 0
-613 -615 0
-614 -615 0
-1 -2 0
-1 -3 0
-1 -4 0
-1 -5 0
-2 -3 0
-2 -4 0
-2 -5 0
-3 -4 0
-3 -5 0
-4 -5 0
-6 -7 0
-6 -8 0
-6 -9 0
-6 -10 0
-7 -8 0
-7 -9 0
-7 -10 0
-8 -9 0
-8 -10 0
-9 -10 0
-11 -12 0
-11 -13 0
-11 -14 0
-11 -15 0
-12 -13 0
-12 -14 0
-12 -15 0
-13 -14 0
-13 -15 0
-14 -15 0
-16 -17 0
-16 -18 0
-16 -19 0
-16 -20 0
-17 -18 0
-17 -19 0
-17 -20 0
-18 -19 0
-18 -20 0
-19 -20 0
-21 -22 0
-21 -23 0
-21 -24 0
-21 -25 0
-22 -23 0
-22 -24 0
-22 -25 0
-23 -24 0
-23 -25 0
-24 -25 0
-26 -27 0
-26 -28 0
-26 -29 0
-26 -30 0
-27 -28 0
-27 -29 0
-27 -30 0
-28 -29 0
-28 -30 0
-29 -30 0
-31 -32 0
-31 -33 0
-31 -34 0
-31 -35 0
-32 -33 0
-32 -34 0
-32 -35 0
-33 -34 0
-33 -35 0
-34 -35 0
-36 -37 0
-36 -38 0
-36 -39 0
-36 -40 0
-37 -38 0
-37 -39 0
-37 -40 0
-38 -39 0
-38 -40 0
-39 -40 0
-41 -42 0
-41 -43 0
-41 -44 0
-41 -45 0
-42 -43 0
-42 -44 0
-42 -45 0
-43 -44 0
-43 -45 0
-44 -45 0
-46 -47 0
-46 -48 0
-46 -49 0
-46 -50 0
-47 -48 0
-47 -49 0
-47 -50 0
-48 -49 0
-48 -50 0
-49 -50 0
-51 -52 0
-51 -53 0
-51 -54 0
-51 -55 0
-52 -53 0
-52 -54 0
-52 -55 0
-53 -54 0
-53 -55 0
-54 -55 0
-56 -57 0
-56 -58 0
-56 -59 0
-56 -60 0
-57 -58 0
-57 -59 0
-57 -60 0
-58 -59 0
-58 -60 0
-59 -60 0
-61 -62 0
-61 -63 0
-61 -64 0
-61 -65 0
-62 -63 0
-62 -64 0
-62 -65 0
-63 -64 0
-63 -65 0
-64 -65 0
-66 -67 0
-66 -68 0
-66 -69 0
-66 -70 0
-67 -68 0
-67 -69 0
-67 -70 0
-68 -69 0
-68 -70 0
-69 -70 0
-71 -72 0
-71 -73 0
-71 -74 0
-71 -75 0
-72 -73 0
-72 -74 0
-72 -75 0
-73 -74 0
-73 -75 0
-74 -75 0
-76 -77 0
-76 -78 0
-76 -79 0
-76 -80 0
-77 -78 0
-77 -79 0
-77 -80 0
-78 -79 0
-78 -80 0
-79 -80 0
-81 -82 0
-81 -83 0
-81 -84 0
-81 -85 0
-82 -83 0
-82 -84 0
-82 -85 0
-83 -84 0
-83 -85 0
-84 -85 0
-86 -87 0
-86 -88 0
-86 -89 0
-86 -90 0
-87 -88 0
-87 -89 0
-87 -90 0
-88 -89 0
-88 -90 0
-89 -90 0
-91 -92 0
-91 -93 0
-91 -94 0
-91 -95 0
-92 -93 0
-92 -94 0
-92 -95 0
-93 -94 0
-93 -95 0
-94 -95 0
-96 -97 0
-96 -98 0
-96 -99 0
-96 -100 0
-97 -98 0
-97 -99 0
-97 -100 0
-98 -99 0
-98 -100 0
-99 -100 0
-101 -102 0
-101 -103 0
-101 -104 0
-101 -105 0
-102 -103 0
-102 -104 0
-102 -105 0
-103 -104 0
-103 -105 0
-104 -105 0
-106 -107 0
-106 -108 0
-106 -109 0
-106 -110 0
-107 -108 0
-107 -109 0
-107 -110 0
-108 -109 0
-108 -110 0
-109 -110 0
616 617 618 619 620 0
621 622 623 624 625 0
626 627 628 629 630 0
631 632 633 634 635 0
636 637 638 639 640 0
591 592 593 594 595 0
596 597 598 599 600 0
601 602 603 604 605 0
606 607 608 609 610 0
611 612 613 614 615 0
-591 -1 6 0
-592 -1 7 0
-593 -1 8 0
-594 -1 9 0
-595 -1 10 0
-596 -2 6 0
-597 -2 7 0
-598 -2 8 0
-599 -2 9 0
-600 -2 10 0
-601 -3 6 0
-602 -3 7 0
-603 -3 8 0
-604 -3 9 0
-605 -3 10 0
-606 -4 6 0
-607 -4 7 0
-608 -4 8 0
-609 -4 9 0
-610 -4 10 0
-611 -5 6 0
-612 -5 7 0
-613 -5 8 0
-614 -5 9 0
-615 -5 10 0
-616 -6 11 0
-617 -6 12 0
-618 -6 13 0
-619 -6 14 0
-620 -6 15 0
-621 -7 11 0
-622 -7 12 0
-623 -7 13 0
-624 -7 14 0
-625 -7 15 0
-626 -8 11 0
-627 -8 12 0
-628 -8 13 0
-629 -8 14 0
-630 -8 15 0
-631 -9 11 0
-632 -9 12 0
-633 -9 13 0
-634 -9 14 0
-635 -9 15 0
-636 -10 11 0
-637 -10 12 0
-638 -10 13 0
-639 -10 14 0
-640 -10 15 0
-591 -11 16 0
-592 -11 17 0
-593 -11 18 0
-594 -11 19 0
-595 -11 20 0
-596 -12 16 0
-597 -12 17 0
-598 -12 18 0
-599 -12 19 0
-600 -12 20 0
-601 -13 16 0
-602 -13 17 0
-603 -13 18 0
-604 -13 19 0
-605 -13 20 0
-606 -14 16 0
-607 -14 17 0
-608 -14 18 0
-609 -14 19 0
-610 -14 20 0
-611 -15 16 0
-612 -15 17 0
-613 -15 18 0
-614 -15 19 0
-615 -15 20 0
-591 -16 21 0
-592 -16 22 0
-593 -16 23 0
-594 -16 24 0
-595 -16 25 0
-596 -17 21 0
-597 -17 22 0
-598 -17 23 0
-599 -17 24 0
-600 -17 25 0
-601 -18 21 0
-602 -18 22 0
-603 -18 23 0
-604 -18 24 0
-605 -18 25 0
-606 -19 21 0
-607 -19 22 0
-608 -19 23 0
-609 -19 24 0
-610 -19 25 0
-611 -20 21 0
-612 -20 22 0
-613 -20 23 0
-614 -20 24 0
-615 -20 25 0
-616 -11 26 0
-617 -11 27 0
-618 -11 28 0
-619 -11 29 0
-620 -11 30 0
-621 -12 26 0
-622 -12 27 0
-623 -12 28 0
-624 -12 29 0
-625 -12 30 0
-626 -13 26 0
-627 -13 27 0
-628 -13 28 0
-629 -13 29 0
-630 -13 30 0
-631 -14 26 0
-632 -14 27 0
-633 -14 28 0
-634 -14 29 0
-635 -14 30 0
-636 -15 26 0
-637 -15 27 0
-638 -15 28 0
-639 -15 29 0
-640 -15 30 0
-616 -1 31 0
-617 -1 32 0
-618 -1 33 0
-619 -1 34 0
-620 -1 35 0
-621 -2 31 0
-622 -2 32 0
-623 -2 33 0
-624 -2 34 0
-625 -2 35 0
-626 -3 31 0
-627 -3 32 0
-628 -3 33 0
-629 -3 34 0
-630 -3 35 0
-631 -4 31 0
-632 -4 32 0
-633 -4 33 0
-634 -4 34 0
-635 -4 35 0
-636 -5 31 0
-637 -5 32 0
-638 -5 33 0
-639 -5 34 0
-640 -5 35 0
-616 -31 36 0
-617 -31 37 0
-618 -31 38 0
-619 -31 39 0
-620 -31 40 0
-621 -32 36 0
-622 -32 37 0
-623 -32 38 0
-624 -32 39 0
-625 -32 40 0
-626 -33 36 0
-627 -33 37 0
-628 -33 38 0
-629 -33 39 0
-630 -33 40 0
-631 -34 36 0
-632 -34 37 0
-633 -34 38 0
-634 -34 39 0
-635 -34 40 0
-636 -35 36 0
-637 -35 37 0
-638 -35 38 0
-639 -35 39 0
-640 -35 40 0
-591 -31 41 0
-592 -31 42 0
-593 -31 43 0
-594 -31 44 0
-595 -31 45 0
-596 -32 41 0
-597 -32 42 0
-598 -32 43 0
-599 -32 44 0
-600 -32 45 0
-601 -33 41 0
-602 -33 42 0
-603 -33 43 0
-604 -33 44 0
-605 -33 45 0
-606 -34 41 0
-607 -34 42 0
-608 -34 43 0
-609 -34 44 0
-610 -34 45 0
-611 -35 41 0
-612 -35 42 0
-613 -35 43 0
-614 -35 44 0
-615 -35 45 0
-591 -6 46 0
-592 -6 47 0
-593 -6 48 0
-594 -6 49 0
-595 -6 50 0
-596 -7 46 0
-597 -7 47 0
-598 -7 48 0
-599 -7 49 0
-600 -7 50 0
-601 -8 46 0
-602 -8 47 0
-603 -8 48 0
-604 -8 49 0
-605 -8 50 0
-606 -9 46 0
-607 -9 47 0
-608 -9 48 0
-609 -9 49 0
-610 -9 50 0
-611 -10 46 0
-612 -10 47 0
-613 -10 48 0
-614 -10 49 0
-615 -10 50 0
-591 -46 51 0
-592 -46 52 0
-593 -46 53 0
-594 -46 54 0
-595 -46 55 0
-596 -47 51 0
-597 -47 52 0
-598 -47 53 0
-599 -47 54 0
-600 -47 55 0
-601 -48 51 0
-602 -48 52 0
-603 -48 53 0
-604 -48 54 0
-605 -48 55 0
-606 -49 51 0
-607 -49 52 0
-608 -49 53 0
-609 -49 54 0
-610 -49 55 0
-611 -50 51 0
-612 -50 52 0
-613 -50 53 0
-614 -50 54 0
-615 -50 55 0
-591 -51 56 0
-592 -51 57 0
-593 -51 58 0
-594 -51 59 0
-595 -51 60 0
-596 -52 56 0
-597 -52 57 0
-598 -52 58 0
-599 -52 59 0
-600 -52 60 0
-601 -53 56 0
-602 -53 57 0
-603 -53 58 0
-604 -53 59 0
-605 -53 60 0
-606 -54 56 0
-607 -54 57 0
-608 -54 58 0
-609 -54 59 0
-610 -54 60 0
-611 -55 56 0
-612 -55 57 0
-613 -55 58 0
-614 -55 59 0
-615 -55 60 0
-591 -56 61 0
-592 -56 62 0
-593 -56 63 0
-594 -56 64 0
-595 -56 65 0
-596 -57 61 0
-597 -57 62 0
-598 -57 63 0
-599 -57 64 0
-600 -57 65 0
-601 -58 61 0
-602 -58 62 0
-603 -58 63 0
-604 -58 64 0
-605 -58 65 0
-606 -59 61 0
-607 -59 62 0
-608 -59 63 0
-609 -59 64 0
-610 -59 65 0
-611 -60 61 0
-612 -60 62 0
-613 -60 63 0
-614 -60 64 0
-615 -60 65 0
-591 -61 66 0
-592 -61 67 0
-593 -61 68 0
-594 -61 69 0
-595 -61 70 0
-596 -62 66 0
-597 -62 67 0
-598 -62 68 0
-599 -62 69 0
-600 -62 70 0
-601 -63 66 0
-602 -63 67 0
-603 -63 68 0
-604 -63 69 0
-605 -63 70 0
-606 -64 66 0
-607 -64 67 0
-608 -64 68 0
-609 -64 69 0
-610 -64 70 0
-611 -65 66 0
-612 -65 67 0
-613 -65 68 0
-614 -65 69 0
-615 -65 70 0
-591 -66 71 0
-592 -66 72 0
-593 -66 73 0
-594 -66 74 0
-595 -66 75 0
-596 -67 71 0
-597 -67 72 0
-598 -67 73 0
-599 -67 74 0
-600 -67 75 0
-601 -68 71 0
-602 -68 72 0
-603 -68 73 0
-604 -68 74 0
-605 -68 75 0
-606 -69 71 0
-607 -69 72 0
-608 -69 73 0
-609 -69 74 0
-610 -69 75 0
-611 -70 71 0
-612 -70 72 0
-613 -70 73 0
-614 -70 74 0
-615 -70 75 0
-591 -71 76 0
-592 -71 77 0
-593 -71 78 0
-594 -71 79 0
-595 -71 80 0
-596 -72 76 0
-597 -72 77 0
-598 -72 78 0
-599 -72 79 0
-600 -72 80 0
-601 -73 76 0
-602 -73 77 0
-603 -73 78 0
-604 -73 79 0
-605 -73 80 0
-606 -74 76 0
-607 -74 77 0
-608 -74 78 0
-609 -74 79 0
-610 -74 80 0
-611 -75 76 0
-612 -75 77 0
-613 -75 78 0
-614 -75 79 0
-615 -75 80 0
-616 -46 81 0
-617 -46 82 0
-618 -46 83 0
-619 -46 84 0
-620 -46 85 0
-621 -47 81 0
-622 -47 82 0
-623 -47 83 0
-624 -47 84 0
-625 -47 85 0
-626 -48 81 0
-627 -48 82 0
-628 -48 83 0
-629 -48 84 0
-630 -48 85 0
-631 -49 81 0
-632 -49 82 0
-633 -49 83 0
-634 -49 84 0
-635 -49 85 0
-636 -50 81 0
-637 -50 82 0
-638 -50 83 0
-639 -50 84 0
-640 -50 85 0
-616 -81 86 0
-617 -81 87 0
-618 -81 88 0
-619 -81 89 0
-620 -81 90 0
-621 -82 86 0
-622 -82 87 0
-623 -82 88 0
-624 -82 89 0
-625 -82 90 0
-626 -83 86 0
-627 -83 87 0
-628 -83 88 0
-629 -83 89 0
-630 -83 90 0
-631 -84 86 0
-632 -84 87 0
-633 -84 88 0
-634 -84 89 0
-635 -84 90 0
-636 -85 86 0
-637 -85 87 0
-638 -85 88 0
-639 -85 89 0
-640 -85 90 0
-616 -71 91 0
-617 -71 92 0
-618 -71 93 0
-619 -71 94 0
-620 -71 95 0
-621 -72 91 0
-622 -72 92 0
-623 -72 93 0
-624 -72 94 0
-625 -72 95 0
-626 -73 91 0
-627 -73 92 0
-628 -73 93 0
-629 -73 94 0
-630 -73 95 0
-631 -74 91 0
-632 -74 92 0
-633 -74 93 0
-634 -74 94 0
-635 -74 95 0
-636 -75 91 0
-637 -75 92 0
-638 -75 93 0
-639 -75 94 0
-640 -75 95 0
-616 -66 96 0
-617 -66 97 0
-618 -66 98 0
-619 -66 99 0
-620 -66 100 0
-621 -67 96 0
-622 -67 97 0
-623 -67 98 0
-624 -67 99 0
-625 -67 100 0
-626 -68 96 0
-627 -68 97 0
-628 -68 98 0
-629 -68 99 0
-630 -68 100 0
-631 -69 96 0
-632 -69 97 0
-633 -69 98 0
-634 -69 99 0
-635 -69 100 0
-636 -70 96 0
-637 -70 97 0
-638 -70 98 0
-639 -70 99 0
-640 -70 100 0
-591 -96 101 0
-592 -96 102 0
-593 -96 103 0
-594 -96 104 0
-595 -96 105 0
-596 -97 101 0
-597 -97 102 0
-598 -97 103 0
-599 -97 104 0
-600 -97 105 0
-601 -98 101 0
-602 -98 102 0
-603 -98 103 0
-604 -98 104 0
-605 -98 105 0
-606 -99 101 0
-607 -99 102 0
-608 -99 103 0
-609 -99 104 0
-610 -99 105 0
-611 -100 101 0
-612 -100 102 0
-613 -100 103 0
-614 -100 104 0
-615 -100 105 0
-616 -96 106 0
-617 -96 107 0
-618 -96 108 0
-619 -96 109 0
-620 -96 110 0
-621 -97 106 0
-622 -97 107 0
-623 -97 108 0
-624 -97 109 0
-625 -97 110 0
-626 -98 106 0
-627 -98 107 0
-628 -98 108 0
-629 -98 109 0
-630 -98 110 0
-631 -99 106 0
-632 -99 107 0
-633 -99 108 0
-634 -99 109 0
-635 -99 110 0
-636 -100 106 0
-637 -100 107 0
-638 -100 108 0
-639 -100 109 0
-640 -100 110 0
-6 -1 0
-7 -2 0
-8 -3 0
-9 -4 0
-10 -5 0
-11 -6 0
-12 -7 0
-13 -8 0
-14 -9 0
-15 -10 0
-26 -6 0
-27 -7 0
-28 -8 0
-29 -9 0
-30 -10 0
-26 -21 0
-27 -22 0
-28 -23 0
-29 -24 0
-30 -25 0
-31 -1 0
-32 -2 0
-33 -3 0
-34 -4 0
-35 -5 0
-31 -6 0
-32 -7 0
-33 -8 0
-34 -9 0
-35 -10 0
-31 -11 0
-32 -12 0
-33 -13 0
-34 -14 0
-35 -15 0
-31 -21 0
-32 -22 0
-33 -23 0
-34 -24 0
-35 -25 0
-36 -26 0
-37 -27 0
-38 -28 0
-39 -29 0
-40 -30 0
-36 -31 0
-37 -32 0
-38 -33 0
-39 -34 0
-40 -35 0
-41 -26 0
-42 -27 0
-43 -28 0
-44 -29 0
-45 -30 0
-41 -31 0
-42 -32 0
-43 -33 0
-44 -34 0
-45 -35 0
-46 -1 0
-47 -2 0
-48 -3 0
-49 -4 0
-50 -5 0
-46 -6 0
-47 -7 0
-48 -8 0
-49 -9 0
-50 -10 0
-51 -1 0
-52 -2 0
-53 -3 0
-54 -4 0
-55 -5 0
-51 -6 0
-52 -7 0
-53 -8 0
-54 -9 0
-55 -10 0
-56 -1 0
-57 -2 0
-58 -3 0
-59 -4 0
-60 -5 0
-56 -6 0
-57 -7 0
-58 -8 0
-59 -9 0
-60 -10 0
-61 -1 0
-62 -2 0
-63 -3 0
-64 -4 0
-65 -5 0
-61 -6 0
-62 -7 0
-63 -8 0
-64 -9 0
-65 -10 0
-66 -1 0
-67 -2 0
-68 -3 0
-69 -4 0
-70 -5 0
-66 -6 0
-67 -7 0
-68 -8 0
-69 -9 0
-70 -10 0
-66 -11 0
-67 -12 0
-68 -13 0
-69 -14 0
-70 -15 0
-66 -46 0
-67 -47 0
-68 -48 0
-69 -49 0
-70 -50 0
-71 -1 0
-72 -2 0
-73 -3 0
-74 -4 0
-75 -5 0
-71 -6 0
-72 -7 0
-73 -8 0
-74 -9 0
-75 -10 0
-71 -11 0
-72 -12 0
-73 -13 0
-74 -14 0
-75 -15 0
-71 -16 0
-72 -17 0
-73 -18 0
-74 -19 0
-75 -20 0
-71 -31 0
-72 -32 0
-73 -33 0
-74 -34 0
-75 -35 0
-76 -6 0
-77 -7 0
-78 -8 0
-79 -9 0
-80 -10 0
-76 -21 0
-77 -22 0
-78 -23 0
-79 -24 0
-80 -25 0
-76 -36 0
-77 -37 0
-78 -38 0
-79 -39 0
-80 -40 0
-76 -41 0
-77 -42 0
-78 -43 0
-79 -44 0
-80 -45 0
-81 -1 0
-82 -2 0
-83 -3 0
-84 -4 0
-85 -5 0
-81 -11 0
-82 -12 0
-83 -13 0
-84 -14 0
-85 -15 0
-86 -26 0
-87 -27 0
-88 -28 0
-89 -29 0
-90 -30 0
-86 -31 0
-87 -32 0
-88 -33 0
-89 -34 0
-90 -35 0
-86 -76 0
-87 -77 0
-88 -78 0
-89 -79 0
-90 -80 0
-91 -26 0
-92 -27 0
-93 -28 0
-94 -29 0
-95 -30 0
-91 -31 0
-92 -32 0
-93 -33 0
-94 -34 0
-95 -35 0
-91 -76 0
-92 -77 0
-93 -78 0
-94 -79 0
-95 -80 0
-96 -81 0
-97 -82 0
-98 -83 0
-99 -84 0
-100 -85 0
-96 -31 0
-97 -32 0
-98 -33 0
-99 -34 0
-100 -35 0
-96 -71 0
-97 -72 0
-98 -73 0
-99 -74 0
-100 -75 0
-101 -26 0
-102 -27 0
-103 -28 0
-104 -29 0
-105 -30 0
-101 -31 0
-102 -32 0
-103 -33 0
-104 -34 0
-105 -35 0
-101 -76 0
-102 -77 0
-103 -78 0
-104 -79 0
-105 -80 0
-106 -6 0
-107 -7 0
-108 -8 0
-109 -9 0
-110 -10 0
-106 -86 0
-107 -87 0
-108 -88 0
-109 -89 0
-110 -90 0
-106 -91 0
-107 -92 0
-108 -93 0
-109 -94 0
-110 -95 0
-106 -21 0
-107 -22 0
-108 -23 0
-109 -24 0
-110 -25 0
-106 -101 0
-107 -102 0
-108 -103 0
-109 -104 0
-110 -105 0
-106 -36 0
-107 -37 0
-108 -38 0
-109 -39 0
-110 -40 0
-106 -41 0
-107 -42 0
-108 -43 0
-109 -44 0
-110 -45 0
